100 20
3
3 9 34 94 1 38 78 80 94 50 13 86 46 99 87 37 93 90 82 86 6 74 43 1 73 90 48 79 17 19 19 65 27 35 9 13 53 70 88 10 43 5 40 15 14 85 0 35 97 14 6 88 3 68 95 27 67 34 41 13 17 40 74 38 42 67 27 60 15 34 50 44 84 52 25 75 44 81 5 83 71 68 95 93 91 32 41 82 29 13 9 54 8 25 33 17 47 16 49 62
628 627 466 808 764 749 737 867 696 774 785 873 915 790 649 790 857 691 633 724
0 0 0 0 0 0 0 0 82 68 0 0 0 0 0 0 0 5 0 0 0 0 0 0 4 0 0 0 26 0 52 0 0 0 0 0 0 0 0 0 0 0 0 18 0 0 0 0 0 0 0 59 80 26 0 0 0 0 0 0 0 0 0 0 0 0 0 0 0 0 8 99 0 0 0 0 0 0 60 0 0 0 24 0 0 0 30 54 0 0 0 0 0 0 0 0 53 51 0 0
0 0 0 0 0 0 20 0 0 0 20 36 0 0 0 0 0 91 0 0 0 0 0 0 0 0 0 0 0 0 0 0 0 0 0 12 0 0 0 0 0 58 0 0 0 0 0 0 0 0 0 0 0 0 0 0 0 53 0 0 7 94 72 0 0 0 0 0 0 84 0 0 0 0 0 0 0 0 83 0 0 0 8 43 46 0 0 0 0 0 0 0 0 0 26 0 0 0 97 0
0 0 0 0 0 0 0 0 0 0 0 0 0 0 0 0 0 0 0 0 0 0 0 0 0 0 0 0 76 0 0 0 0 0 0 0 0 0 0 10 75 0 0 0 6 0 0 0 0 0 0 43 0 0 92 0 0 0 92 0 0 0 0 0 0 0 0 0 0 0 0 0 0 90 0 0 0 0 0 0 0 0 0 0 0 0 0 0 0 0 0 28 0 0 0 0 0 0 54 0
0 31 81 0 0 0 21 0 0 0 25 0 0 0 0 0 90 0 0 78 0 72 0 0 0 0 0 42 0 0 0 91 0 3 0 0 0 0 4 0 69 0 94 0 0 0 0 0 0 0 0 0 33 0 0 0 0 53 0 0 0 0 0 0 0 0 0 0 0 52 0 0 0 0 4 0 0 0 76 0 48 0 0 0 0 0 49 0 0 0 0 65 0 80 0 0 26 0 0 0
0 9 0 0 90 0 0 0 97 0 0 0 33 0 0 0 50 0 0 0 0 0 72 0 0 0 0 28 0 18 0 0 0 0 54 0 0 0 0 0 99 0 0 0 0 0 0 0 0 0 97 0 0 0 0 12 0 38 0 0 6 0 0 0 85 50 0 0 0 0 0 0 0 0 0 0 0 0 76 0 0 21 0 0 13 0 0 0 0 0 0 0 0 5 0 63 0 0 0 0
0 32 0 0 0 0 0 0 0 0 0 0 0 0 0 0 0 0 0 0 0 0 0 0 0 0 79 0 0 0 0 0 73 0 0 62 0 0 17 0 0 0 79 78 33 0 16 0 0 0 0 0 0 98 30 0 0 0 0 0 0 0 0 0 0 0 0 71 59 0 68 0 13 0 8 0 0 0 1 0 5 0 40 0 0 0 0 0 0 0 0 0 0 0 40 60 81 0 0 59
0 0 0 0 37 88 0 99 39 0 0 0 0 0 87 0 0 0 0 0 0 0 0 0 0 0 0 0 0 0 11 0 0 0 0 0 0 0 0 0 87 0 0 0 10 0 0 0 0 0 0 0 0 38 0 88 0 0 0 0 4 0 0 0 0 0 0 77 0 0 0 0 0 47 0 0 0 0 0 0 0 0 0 0 98 0 0 0 0 0 97 0 0 0 0 0 0 0 38 0
0 0 0 3 90 0 0 2 0 0 15 0 0 0 7 51 0 0 0 11 0 0 0 0 0 0 0 93 0 0 82 0 0 0 0 0 78 0 73 0 16 0 0 0 0 0 0 0 64 0 88 0 0 82 0 92 0 0 55 0 3 0 0 0 0 0 0 0 0 0 25 0 90 0 0 0 0 0 0 0 0 0 72 0 0 0 0 68 0 0 0 0 0 0 0 0 0 0 0 80
0 21 0 0 0 0 1 0 96 0 0 0 0 0 0 0 0 0 88 57 0 0 76 0 18 78 0 0 0 0 0 91 0 0 0 0 0 0 0 0 0 0 0 49 49 87 57 0 0 0 0 0 0 20 0 0 0 0 0 0 34 0 0 0 0 0 0 0 0 0 0 0 0 0 17 0 0 0 0 0 0 0 0 0 0 0 0 0 0 0 0 21 0 0 15 17 0 0 0 0
0 0 0 80 0 0 61 90 6 32 81 0 0 0 0 0 86 0 0 0 0 28 0 34 0 81 0 0 0 0 0 0 0 0 0 0 0 0 0 0 77 0 47 0 50 68 0 57 0 0 0 0 0 0 0 0 0 0 0 0 0 0 0 0 70 0 99 0 0 0 0 44 0 14 0 0 0 0 0 29 0 0 0 0 0 0 0 0 0 0 0 0 0 0 0 0 0 0 0 0
0 0 0 0 0 0 77 0 0 0 0 0 0 0 32 0 0 0 92 0 0 83 47 0 0 71 0 0 0 0 0 0 0 0 0 82 2 29 17 0 0 0 23 0 0 56 0 0 0 0 0 0 0 0 0 0 0 0 0 0 0 0 30 0 0 0 0 10 0 0 0 0 0 60 0 32 0 0 0 0 0 46 0 0 0 0 0 44 0 0 0 0 0 98 0 87 27 0 48 0
94 0 0 0 28 65 0 85 0 0 0 0 0 0 69 0 0 0 0 0 0 0 0 0 0 0 0 19 0 45 80 0 0 0 0 0 0 0 0 98 0 0 0 0 0 0 28 95 0 0 0 0 0 69 0 2 0 0 15 0 0 0 97 0 0 0 56 0 88 0 0 0 0 0 0 0 96 0 0 0 0 0 0 0 0 0 59 0 0 0 0 0 0 53 0 0 0 0 0 0
0 55 0 86 0 0 0 0 0 0 14 48 0 0 0 0 0 0 0 0 0 0 0 0 0 0 0 0 0 0 0 0 0 0 0 0 81 0 0 0 94 73 0 99 0 0 0 87 32 0 0 0 0 0 0 72 0 2 17 0 0 0 93 22 0 7 0 49 0 4 0 0 0 83 0 18 0 91 0 0 0 0 0 0 49 0 0 0 0 91 0 0 0 0 0 0 0 0 0 0
0 50 0 48 76 0 0 0 0 0 0 0 0 13 0 0 0 0 78 0 0 75 0 0 0 0 0 0 0 0 0 95 0 70 0 0 0 0 0 0 0 0 0 0 0 0 0 0 40 0 0 28 52 0 0 0 0 0 0 0 0 0 0 0 45 49 0 0 65 0 0 0 0 0 0 0 0 0 0 0 85 0 9 0 0 0 67 0 0 0 0 0 69 0 0 68 0 0 16 0
0 0 0 0 8 0 0 0 74 0 0 11 0 91 0 71 0 0 0 0 0 0 0 0 0 15 0 0 0 66 0 0 0 0 0 79 41 0 22 0 0 0 0 0 9 0 0 26 0 0 0 0 0 0 10 0 24 0 0 0 0 0 0 0 0 0 0 0 0 0 0 81 0 0 0 0 0 0 37 0 0 95 0 0 0 14 0 0 0 0 0 0 0 0 12 0 0 67 0 0
0 0 0 0 0 99 0 0 0 0 0 0 0 7 0 0 94 0 0 0 0 0 78 0 0 0 0 34 0 0 0 0 0 76 0 95 74 48 0 0 0 34 0 0 0 0 0 0 0 0 0 91 0 0 0 0 0 38 0 0 19 0 0 0 0 0 0 0 0 2 0 72 89 0 0 0 0 0 21 0 0 0 0 0 0 0 0 0 0 73 0 0 0 0 25 57 0 0 0 88
0 59 0 0 0 0 30 0 71 0 61 0 47 0 90 0 0 0 0 0 0 0 0 0 0 0 0 43 0 0 0 0 0 0 42 0 0 36 0 0 81 0 0 48 0 0 0 56 9 0 0 0 0 0 0 0 0 0 37 0 87 0 0 0 0 80 0 0 0 0 0 0 0 0 42 0 69 0 43 0 0 0 0 0 0 0 0 0 0 0 0 0 0 0 97 0 0 99 0 0
0 0 72 0 0 0 0 0 0 94 0 0 83 6 93 0 0 0 16 0 0 0 0 0 0 0 67 0 0 0 14 14 0 0 63 0 0 0 20 23 0 0 0 0 0 57 0 0 0 0 0 17 0 90 0 5 0 0 0 0 0 0 0 0 71 0 0 0 0 0 25 0 0 0 0 0 0 0 0 0 60 0 0 0 0 0 0 0 45 0 0 0 0 73 0 0 0 0 0 0
0 0 0 0 29 0 0 0 0 0 0 0 0 0 0 0 0 0 0 37 0 0 0 0 2 0 0 0 0 5 0 0 0 0 0 0 0 0 44 0 0 0 0 0 0 0 0 0 94 0 0 0 0 0 0 0 53 0 0 47 0 0 0 40 0 0 47 0 0 0 44 72 0 0 0 0 0 0 29 27 0 0 0 0 0 88 0 0 57 0 0 57 0 0 0 0 0 0 67 0
0 0 0 0 79 0 11 0 0 58 0 0 0 0 0 0 0 0 0 0 0 0 0 0 0 0 0 74 0 32 0 40 70 0 0 75 35 0 68 0 0 0 29 0 0 91 0 0 0 0 0 0 0 0 0 56 0 0 0 0 48 0 0 0 0 0 0 0 0 0 0 0 0 0 0 0 66 0 0 61 66 0 0 0 20 0 0 0 0 0 0 0 0 0 23 0 0 0 0 0
0 0 0 0 0 0 0 0 70 40 0 0 0 0 0 0 0 4 0 0 0 0 0 0 0 0 0 0 12 0 35 0 0 0 0 0 0 0 0 0 0 0 0 5 0 0 0 0 0 0 0 58 76 18 0 0 0 0 0 0 0 0 0 0 0 0 0 0 0 0 0 1 0 0 0 0 0 0 20 0 0 0 13 0 0 0 26 48 0 0 0 0 0 0 0 0 43 21 0 0
0 0 0 0 0 0 14 0 0 0 13 3 0 0 0 0 0 17 0 0 0 0 0 0 0 0 0 0 0 0 0 0 0 0 0 5 0 0 0 0 0 26 0 0 0 0 0 0 0 0 0 0 0 0 0 0 0 27 0 0 3 41 13 0 0 0 0 0 0 45 0 0 0 0 0 0 0 0 48 0 0 0 0 17 22 0 0 0 0 0 0 0 0 0 25 0 0 0 92 0
0 0 0 0 0 0 0 0 0 0 0 0 0 0 0 0 0 0 0 0 0 0 0 0 0 0 0 0 7 0 0 0 0 0 0 0 0 0 0 1 68 0 0 0 3 0 0 0 0 0 0 30 0 0 72 0 0 0 58 0 0 0 0 0 0 0 0 0 0 0 0 0 0 27 0 0 0 0 0 0 0 0 0 0 0 0 0 0 0 0 0 6 0 0 0 0 0 0 7 0
0 21 26 0 0 0 11 0 0 0 5 0 0 0 0 0 49 0 0 20 0 56 0 0 0 0 0 28 0 0 0 23 0 1 0 0 0 0 1 0 0 0 19 0 0 0 0 0 0 0 0 0 7 0 0 0 0 50 0 0 0 0 0 0 0 0 0 0 0 38 0 0 0 0 3 0 0 0 30 0 37 0 0 0 0 0 41 0 0 0 0 5 0 59 0 0 16 0 0 0
0 6 0 0 89 0 0 0 75 0 0 0 17 0 0 0 31 0 0 0 0 0 31 0 0 0 0 20 0 7 0 0 0 0 53 0 0 0 0 0 50 0 0 0 0 0 0 0 0 0 74 0 0 0 0 6 0 4 0 0 3 0 0 0 39 15 0 0 0 0 0 0 0 0 0 0 0 0 13 0 0 3 0 0 6 0 0 0 0 0 0 0 0 3 0 11 0 0 0 0
0 7 0 0 0 0 0 0 0 0 0 0 0 0 0 0 0 0 0 0 0 0 0 0 0 0 75 0 0 0 0 0 54 0 0 36 0 0 11 0 0 0 51 34 16 0 12 0 0 0 0 0 0 9 5 0 0 0 0 0 0 0 0 0 0 0 0 8 17 0 25 0 11 0 5 0 0 0 0 0 3 0 30 0 0 0 0 0 0 0 0 0 0 0 18 12 1 0 0 27
0 0 0 0 10 67 0 61 16 0 0 0 0 0 27 0 0 0 0 0 0 0 0 0 0 0 0 0 0 0 6 0 0 0 0 0 0 0 0 0 0 0 0 0 7 0 0 0 0 0 0 0 0 25 0 67 0 0 0 0 3 0 0 0 0 0 0 36 0 0 0 0 0 44 0 0 0 0 0 0 0 0 0 0 85 0 0 0 0 0 72 0 0 0 0 0 0 0 33 0
0 0 0 0 68 0 0 1 0 0 13 0 0 0 5 41 0 0 0 8 0 0 0 0 0 0 0 6 0 0 12 0 0 0 0 0 3 0 16 0 5 0 0 0 0 0 0 0 40 0 55 0 0 29 0 53 0 0 22 0 1 0 0 0 0 0 0 0 0 0 23 0 36 0 0 0 0 0 0 0 0 0 59 0 0 0 0 34 0 0 0 0 0 0 0 0 0 0 0 70
0 6 0 0 0 0 0 0 88 0 0 0 0 0 0 0 0 0 76 17 0 0 48 0 5 0 0 0 0 0 0 74 0 0 0 0 0 0 0 0 0 0 0 44 4 60 10 0 0 0 0 0 0 1 0 0 0 0 0 0 13 0 0 0 0 0 0 0 0 0 0 0 0 0 9 0 0 0 0 0 0 0 0 0 0 0 0 0 0 0 0 12 0 0 12 11 0 0 0 0
0 0 0 16 0 0 56 37 4 18 4 0 0 0 0 0 47 0 0 0 0 0 0 11 0 44 0 0 0 0 0 0 0 0 0 0 0 0 0 0 69 0 40 0 46 16 0 16 0 0 0 0 0 0 0 0 0 0 0 0 0 0 0 0 10 0 5 0 0 0 0 23 0 3 0 0 0 0 0 6 0 0 0 0 0 0 0 0 0 0 0 0 0 0 0 0 0 0 0 0
0 0 0 0 0 0 18 0 0 0 0 0 0 0 30 0 0 0 80 0 0 31 42 0 0 47 0 0 0 0 0 0 0 0 0 21 1 23 10 0 0 0 12 0 0 31 0 0 0 0 0 0 0 0 0 0 0 0 0 0 0 0 19 0 0 0 0 2 0 0 0 0 0 19 0 31 0 0 0 0 0 19 0 0 0 0 0 39 0 0 0 0 0 39 0 61 1 0 44 0
54 0 0 0 26 62 0 76 0 0 0 0 0 0 16 0 0 0 0 0 0 0 0 0 0 0 0 16 0 6 68 0 0 0 0 0 0 0 0 45 0 0 0 0 0 0 20 30 0 0 0 0 0 53 0 1 0 0 10 0 0 0 18 0 0 0 6 0 2 0 0 0 0 0 0 0 26 0 0 0 0 0 0 0 0 0 46 0 0 0 0 0 0 25 0 0 0 0 0 0
0 13 0 63 0 0 0 0 0 0 11 37 0 0 0 0 0 0 0 0 0 0 0 0 0 0 0 0 0 0 0 0 0 0 0 0 45 0 0 0 21 69 0 49 0 0 0 25 12 0 0 0 0 0 0 52 0 0 15 0 0 0 73 10 0 0 0 26 0 0 0 0 0 38 0 16 0 60 0 0 0 0 0 0 6 0 0 0 0 70 0 0 0 0 0 0 0 0 0 0
0 1 0 47 63 0 0 0 0 0 0 0 0 1 0 0 0 0 21 0 0 46 0 0 0 0 0 0 0 0 0 0 0 36 0 0 0 0 0 0 0 0 0 0 0 0 0 0 26 0 0 20 20 0 0 0 0 0 0 0 0 0 0 0 39 34 0 0 61 0 0 0 0 0 0 0 0 0 0 0 30 0 4 0 0 0 52 0 0 0 0 0 23 0 0 62 0 0 0 0
0 0 0 0 7 0 0 0 59 0 0 10 0 13 0 9 0 0 0 0 0 0 0 0 0 11 0 0 0 34 0 0 0 0 0 70 37 0 6 0 0 0 0 0 5 0 0 3 0 0 0 0 0 0 3 0 11 0 0 0 0 0 0 0 0 0 0 0 0 0 0 80 0 0 0 0 0 0 35 0 0 52 0 0 0 1 0 0 0 0 0 0 0 0 0 0 0 10 0 0
0 0 0 0 0 60 0 0 0 0 0 0 0 1 0 0 25 0 0 0 0 0 26 0 0 0 0 15 0 0 0 0 0 27 0 4 53 23 0 0 0 22 0 0 0 0 0 0 0 0 0 43 0 0 0 0 0 6 0 0 13 0 0 0 0 0 0 0 0 1 0 17 40 0 0 0 0 0 4 0 0 0 0 0 0 0 0 0 0 18 0 0 0 0 16 2 0 0 0 27
0 8 0 0 0 0 11 0 51 0 23 0 30 0 13 0 0 0 0 0 0 0 0 0 0 0 0 28 0 0 0 0 0 0 14 0 0 33 0 0 4 0 0 10 0 0 0 52 2 0 0 0 0 0 0 0 0 0 36 0 72 0 0 0 0 58 0 0 0 0 0 0 0 0 9 0 13 0 12 0 0 0 0 0 0 0 0 0 0 0 0 0 0 0 29 0 0 78 0 0
0 0 9 0 0 0 0 0 0 46 0 0 60 4 29 0 0 0 13 0 0 0 0 0 0 0 24 0 0 0 11 8 0 0 15 0 0 0 0 12 0 0 0 0 0 16 0 0 0 0 0 12 0 11 0 1 0 0 0 0 0 0 0 0 21 0 0 0 0 0 22 0 0 0 0 0 0 0 0 0 17 0 0 0 0 0 0 0 28 0 0 0 0 72 0 0 0 0 0 0
0 0 0 0 27 0 0 0 0 0 0 0 0 0 0 0 0 0 0 28 0 0 0 0 1 0 0 0 0 3 0 0 0 0 0 0 0 0 39 0 0 0 0 0 0 0 0 0 30 0 0 0 0 0 0 0 52 0 0 41 0 0 0 9 0 0 43 0 0 0 17 50 0 0 0 0 0 0 16 0 0 0 0 0 0 26 0 0 7 0 0 54 0 0 0 0 0 0 58 0
0 0 0 0 75 0 9 0 0 12 0 0 0 0 0 0 0 0 0 0 0 0 0 0 0 0 0 13 0 8 0 18 17 0 0 42 34 0 46 0 0 0 22 0 0 50 0 0 0 0 0 0 0 0 0 43 0 0 0 0 1 0 0 0 0 0 0 0 0 0 0 0 0 0 0 0 6 0 0 57 47 0 0 0 12 0 0 0 0 0 0 0 0 0 9 0 0 0 0 0
